19 965
525 7 505 7 381 7 219 9 28 11 852 15 669 21
519 7 499 7 409 7 251 9 141 18
529 7 485 7 272 7 90 9 798 11 593 18
529 7 485 7 272 7 90 9 798 11 593 18
529 7 485 7 272 7 90 9 798 11 593 18
529 7 485 7 272 7 90 9 798 11 593 18
525 7 482 7 362 7 201 9 13 11 819 18
535 8 492 8 400 9 235 10 72 14 905 18 837 25 708 80
525 7 482 7 365 7 115 9 943 13
525 7 482 7 365 7 115 9 943 13
525 7 482 7 394 7 212 9 29 11 822 15 625 21
536 7 513 7 437 11
535 8 495 8 401 9 236 10 73 14 906 18 773 30
535 8 495 8 401 9 236 10 73 14 906 18 773 30
535 7 494 7 420 11 345 15
525 7 479 7 356 7 107 9 6 11 781 15 614 22
528 7 482 7 301 7 114 9 881 11 698 15 576 22
525 7 476 7 354 7 155 9 5 11 838 15 650 20 567 28
525 7 477 7 390 7 241 9 75 11 912 15 806 20
